sat
(:max-memory          18.38
 :memory              17.61
 :num-allocs          5834972
 :rlimit-count        236574
 :sls-constraints     1740
 :sls-ddfw-flips      309192.00
 :sls-ddfw-reinits    8
 :sls-ddfw-restarts   92
 :sls-ddfw-shifts     88639.00
 :sls.euf-conflict    1740
 :solve-eqs-elim-vars 4
 :solve-eqs-steps     8
 :time                0.20
 :total-time          0.20)
